c WARNING: for repeatability, setting FPU to use double precision
d VARIABLES            26911        
d CONSTRAINTS          96303        
c ============================[ Problem Statistics ]=============================
c |                                                                             |
c |  Number of variables:         26911                                         |
c |  Number of clauses:           96303                                         |
c |  Parse time:                   0.02 s                                       |
c |                                                                             |
c ============================[ Search Statistics ]==============================
c | Conflicts |          ORIGINAL         |          LEARNT          | Progress |
c |           |    Vars  Clauses Literals |    Limit  Clauses Lit/Cl |          |
c ===============================================================================
c |       100 |   16572    68409   168616 |    25083      100     98 | 38.419 % |
c |       250 |   16572    68409   168616 |    27591      250     94 | 38.419 % |
c |       475 |   16572    68409   168616 |    30350      475     84 | 38.419 % |
c |       812 |   16572    68409   168616 |    33385      812     79 | 38.419 % |
c |      1318 |   16572    68409   168616 |    36724     1318     75 | 38.419 % |
c |      2077 |   16572    68409   168616 |    40396     2077     73 | 38.419 % |
c |      3216 |   16572    68409   168616 |    44436     3216     93 | 38.419 % |
c |      4924 |   16572    68409   168616 |    48880     4924     97 | 38.419 % |
c |      7486 |   16572    68409   168616 |    53768     7486    100 | 38.419 % |
c |     11330 |   16572    68409   168616 |    59145    11330     97 | 38.419 % |
c |     17096 |   16572    68409   168616 |    65059    17096     89 | 38.419 % |
c |     25745 |   16572    68409   168616 |    71565    25745     88 | 38.419 % |
c |     38719 |   16572    68409   168616 |    78722    38719     89 | 38.419 % |
c |     58180 |   16572    68409   168616 |    86594    58180     88 | 38.419 % |
c |     87372 |   16572    68409   168616 |    95253    87372     86 | 38.419 % |
c |    131161 |   16572    68409   168616 |   104779    43172     79 | 38.419 % |
c |    196845 |   16572    68409   168616 |   115257   108856     72 | 38.419 % |
c |    295371 |   16572    68409   168616 |   126782    98409     64 | 38.419 % |
c |    443160 |   16572    68409   168616 |   139461   128867     49 | 38.419 % |
c ===============================================================================
c restarts              : 1022
c conflicts             : 457504         (4568 /sec)
c decisions             : 728009         (0.00 % random) (7268 /sec)
c propagations          : 336845092      (3362994 /sec)
c conflict literals     : 30075437       (49.37 % deleted)
d RESTARTS             1022
d FAILURES             457504       
d NODES                728009       
d BACKTRACKS           728009       
d PROPAGATIONS         336845092    
d NOGOODSIZE           65.74 
d MEMORY               80.00 
d TIME                 100.162 

s UNSATISFIABLE
